certificates/rado_a14_c16_N39.cnf
c Rad2 upper bound instance: x1 + 14*x2 - x3 = 16, interval [1,39]
p cnf 39 154
1 2 13 0
-1 -2 -13 0
1 3 27 0
-1 -3 -27 0
2 14 0
-2 -14 0
2 3 28 0
-2 -3 -28 0
1 3 0
-1 -3 0
2 3 15 0
-2 -3 -15 0
3 29 0
-3 -29 0
1 2 4 0
-1 -2 -4 0
2 4 16 0
-2 -4 -16 0
3 4 30 0
-3 -4 -30 0
1 3 5 0
-1 -3 -5 0
2 5 17 0
-2 -5 -17 0
3 5 31 0
-3 -5 -31 0
1 4 6 0
-1 -4 -6 0
2 6 18 0
-2 -6 -18 0
3 6 32 0
-3 -6 -32 0
1 5 7 0
-1 -5 -7 0
2 7 19 0
-2 -7 -19 0
3 7 33 0
-3 -7 -33 0
1 6 8 0
-1 -6 -8 0
2 8 20 0
-2 -8 -20 0
3 8 34 0
-3 -8 -34 0
1 7 9 0
-1 -7 -9 0
2 9 21 0
-2 -9 -21 0
3 9 35 0
-3 -9 -35 0
1 8 10 0
-1 -8 -10 0
2 10 22 0
-2 -10 -22 0
3 10 36 0
-3 -10 -36 0
1 9 11 0
-1 -9 -11 0
2 11 23 0
-2 -11 -23 0
3 11 37 0
-3 -11 -37 0
1 10 12 0
-1 -10 -12 0
2 12 24 0
-2 -12 -24 0
3 12 38 0
-3 -12 -38 0
1 11 13 0
-1 -11 -13 0
2 13 25 0
-2 -13 -25 0
3 13 39 0
-3 -13 -39 0
1 12 14 0
-1 -12 -14 0
2 14 26 0
-2 -14 -26 0
1 13 15 0
-1 -13 -15 0
2 15 27 0
-2 -15 -27 0
1 14 16 0
-1 -14 -16 0
2 16 28 0
-2 -16 -28 0
1 15 17 0
-1 -15 -17 0
2 17 29 0
-2 -17 -29 0
1 16 18 0
-1 -16 -18 0
2 18 30 0
-2 -18 -30 0
1 17 19 0
-1 -17 -19 0
2 19 31 0
-2 -19 -31 0
1 18 20 0
-1 -18 -20 0
2 20 32 0
-2 -20 -32 0
1 19 21 0
-1 -19 -21 0
2 21 33 0
-2 -21 -33 0
1 20 22 0
-1 -20 -22 0
2 22 34 0
-2 -22 -34 0
1 21 23 0
-1 -21 -23 0
2 23 35 0
-2 -23 -35 0
1 22 24 0
-1 -22 -24 0
2 24 36 0
-2 -24 -36 0
1 23 25 0
-1 -23 -25 0
2 25 37 0
-2 -25 -37 0
1 24 26 0
-1 -24 -26 0
2 26 38 0
-2 -26 -38 0
1 25 27 0
-1 -25 -27 0
2 27 39 0
-2 -27 -39 0
1 26 28 0
-1 -26 -28 0
1 27 29 0
-1 -27 -29 0
1 28 30 0
-1 -28 -30 0
1 29 31 0
-1 -29 -31 0
1 30 32 0
-1 -30 -32 0
1 31 33 0
-1 -31 -33 0
1 32 34 0
-1 -32 -34 0
1 33 35 0
-1 -33 -35 0
1 34 36 0
-1 -34 -36 0
1 35 37 0
-1 -35 -37 0
1 36 38 0
-1 -36 -38 0
1 37 39 0
-1 -37 -39 0
