certificates/rado_a14_c16_N39.drat
-37 -39 0
d -37 -1 -39 0
11 13 37 0
-3 13 0
13 37 0
d 11 13 37 0
-39 0
3 -13 0
-3 0
1 0
29 0
13 0
0
